(set-logic BV) (define-fun origCir ((n113 Bool) (n161 Bool) (n205 Bool) (n203 Bool)) Bool (and (not (and n205 (and n161 n113))) n203)) (synth-fun skel ((n113 Bool) (n161 Bool) (n205 Bool) (n203 Bool)) Bool) (declare-var n113 Bool) (declare-var n161 Bool) (declare-var n205 Bool) (declare-var n203 Bool) (constraint (= (origCir n113 n161 n205 n203) (skel n113 n161 n205 n203))) (check-synth)
